
Log started (V11.0.0) Thu May 15 17:34:08 2008

Tried aggregator 1 time.
Reduced MIP has 220 rows, 4001 columns, and 8020 nonzeros.
Presolve time =    0.03 sec.
Clique table members: 200.
MIP emphasis: balance optimality and feasibility.
MIP search method: dynamic search.
Parallel mode: none, using 1 thread.
Root relaxation solution time =    0.14 sec.

        Nodes                                         Cuts/
   Node  Left     Objective  IInf  Best Integer     Best Node    ItCnt     Gap

*     0+    0                        17458.0000      359.9349      412   97.94%
*     0+    0                          404.0000      359.9349      412   10.91%
      0     0      360.7238    40      404.0000      Fract: 6      444   10.71%
*     0+    0                          398.0000      360.7238      444    9.37%
      0     0      364.2977    48      398.0000      Cuts: 14      666    8.47%
*     0+    0                          381.0000      364.2977      666    4.38%
      0     0      365.0576    49      381.0000       Cuts: 7      775    4.18%
      0     0      365.2071    55      381.0000       Cuts: 5      820    4.15%
      0     0      365.2106    53      381.0000       Cuts: 6      848    4.14%
      0     0      365.6001    56      381.0000       Cuts: 7     1012    4.04%
      0     0      365.6001    60      381.0000       Cuts: 4     1041    4.04%
*     0+    0                          380.0000      365.6001     1041    3.79%
*     0+    0                          379.0000      365.6001     1041    3.54%
      0     2      366.0000    49      379.0000      365.6001     1041    3.54%
    100    65      366.0000    30      379.0000      366.0000    11454    3.43%
*   120+   77                          378.0000      366.0000    13203    3.17%
    200   129      366.3304    43      378.0000      366.0000    20290    3.17%
    300   189      366.0000    35      378.0000      366.0000    28824    3.17%
    400   246      366.0000    34      378.0000      366.0000    35531    3.17%
    500   310      367.0000    20      378.0000      366.0000    41234    3.17%

Cover cuts applied:  24
Mixed integer rounding cuts applied:  4
Zero-half cuts applied:  1

Solution pool: 8 solutions saved.

MIP - Integer optimal solution:  Objective = 3.7600000000e+002
Solution time =   14.99 sec.  Iterations = 43548  Nodes = 511 (315)


Incumbent solution
Variable Name           Solution Value
Cmax                        376.000000
X_1_10                        1.000000
X_2_20                        1.000000
X_3_16                        1.000000
X_4_9                         1.000000
X_5_20                        1.000000
X_6_15                        1.000000
X_7_1                         1.000000
X_8_1                         1.000000
X_9_7                         1.000000
X_10_2                        1.000000
X_11_9                        1.000000
X_12_6                        1.000000
X_13_4                        1.000000
X_14_18                       1.000000
X_15_5                        1.000000
X_16_7                        1.000000
X_17_5                        1.000000
X_18_1                        1.000000
X_19_8                        1.000000
X_20_5                        1.000000
X_21_19                       1.000000
X_22_5                        1.000000
X_23_7                        1.000000
X_24_8                        1.000000
X_25_4                        1.000000
X_26_19                       1.000000
X_27_7                        1.000000
X_28_4                        1.000000
X_29_5                        1.000000
X_30_7                        1.000000
X_31_13                       1.000000
X_32_18                       1.000000
X_33_13                       1.000000
X_34_7                        1.000000
X_35_16                       1.000000
X_36_12                       1.000000
X_37_13                       1.000000
X_38_19                       1.000000
X_39_7                        1.000000
X_40_7                        1.000000
X_41_6                        1.000000
X_42_19                       1.000000
X_43_7                        1.000000
X_44_14                       1.000000
X_45_19                       1.000000
X_46_5                        1.000000
X_47_1                        1.000000
X_48_6                        1.000000
X_49_9                        1.000000
X_50_20                       1.000000
X_51_9                        1.000000
X_52_18                       1.000000
X_53_19                       1.000000
X_54_1                        1.000000
X_55_19                       1.000000
X_56_4                        1.000000
X_57_11                       1.000000
X_58_5                        1.000000
X_59_6                        1.000000
X_60_1                        1.000000
X_61_15                       1.000000
X_62_3                        1.000000
X_63_8                        1.000000
X_64_1                        1.000000
X_65_19                       1.000000
X_66_10                       1.000000
X_67_16                       1.000000
X_68_3                        1.000000
X_69_15                       1.000000
X_70_14                       1.000000
X_71_19                       1.000000
X_72_3                        1.000000
X_73_7                        1.000000
X_74_14                       1.000000
X_75_4                        1.000000
X_76_14                       1.000000
X_77_2                        1.000000
X_78_19                       1.000000
X_79_12                       1.000000
X_80_11                       1.000000
X_81_13                       1.000000
X_82_11                       1.000000
X_83_3                        1.000000
X_84_19                       1.000000
X_85_12                       1.000000
X_86_10                       1.000000
X_87_5                        1.000000
X_88_7                        1.000000
X_89_17                       1.000000
X_90_9                        1.000000
X_91_7                        1.000000
X_92_2                        1.000000
X_93_11                       1.000000
X_94_3                        1.000000
X_95_19                       1.000000
X_96_7                        1.000000
X_97_18                       1.000000
X_98_3                        1.000000
X_99_5                        1.000000
X_100_7                       1.000000
X_101_4                       1.000000
X_102_7                       1.000000
X_103_4                       1.000000
X_104_6                       1.000000
X_105_4                       1.000000
X_106_4                       1.000000
X_107_1                       1.000000
X_108_7                       1.000000
X_109_5                       1.000000
X_110_10                      1.000000
X_111_2                       1.000000
X_112_19                      1.000000
X_113_7                       1.000000
X_114_5                       1.000000
X_115_4                       1.000000
X_116_12                      1.000000
X_117_5                       1.000000
X_118_7                       1.000000
X_119_9                       1.000000
X_120_17                      1.000000
X_121_19                      1.000000
X_122_12                      1.000000
X_123_4                       1.000000
X_124_11                      1.000000
X_125_5                       1.000000
X_126_13                      1.000000
X_127_3                       1.000000
X_128_10                      1.000000
X_129_10                      1.000000
X_130_18                      1.000000
X_131_15                      1.000000
X_132_5                       1.000000
X_133_20                      1.000000
X_134_15                      1.000000
X_135_5                       1.000000
X_136_16                      1.000000
X_137_1                       1.000000
X_138_7                       1.000000
X_139_7                       1.000000
X_140_4                       1.000000
X_141_4                       1.000000
X_142_19                      1.000000
X_143_3                       1.000000
X_144_4                       1.000000
X_145_5                       1.000000
X_146_13                      1.000000
X_147_12                      1.000000
X_148_19                      1.000000
X_149_19                      1.000000
X_150_17                      1.000000
X_151_10                      1.000000
X_152_3                       1.000000
X_153_1                       1.000000
X_154_12                      1.000000
X_155_5                       1.000000
X_156_7                       1.000000
X_157_13                      1.000000
X_158_13                      1.000000
X_159_3                       1.000000
X_160_9                       1.000000
X_161_5                       1.000000
X_162_7                       1.000000
X_163_2                       1.000000
X_164_5                       1.000000
X_165_12                      1.000000
X_166_9                       1.000000
X_167_12                      1.000000
X_168_1                       1.000000
X_169_2                       1.000000
X_170_5                       1.000000
X_171_15                      1.000000
X_172_12                      1.000000
X_173_7                       1.000000
X_174_17                      1.000000
X_175_15                      1.000000
X_176_2                       1.000000
X_177_10                      1.000000
X_178_3                       1.000000
X_179_10                      1.000000
X_180_10                      1.000000
X_181_7                       1.000000
X_182_2                       1.000000
X_183_10                      1.000000
X_184_2                       1.000000
X_185_3                       1.000000
X_186_5                       1.000000
X_187_10                      1.000000
X_188_3                       1.000000
X_189_4                       1.000000
X_190_12                      1.000000
X_191_4                       1.000000
X_192_16                      1.000000
X_193_7                       1.000000
X_194_10                      1.000000
X_195_1                       1.000000
X_196_7                       1.000000
X_197_4                       1.000000
X_198_5                       1.000000
X_199_6                       1.000000
X_200_15                      1.000000
All other variables in the range 1-4001 are 0.
